DIMENSION: 18
EDGE_WEIGHT_TYPE: EXPLICIT
EDGE_WEIGHT_FORMAT: FULL_MATRIX
EDGE_WEIGHT_SECTION:
32767 31 55 32767 43 26 32767 32767 32767 27 32767 32767 32767 32767 91 32767 11 32767 
31 32767 32767 62 21 32767 32767 32767 51 32767 90 32767 67 32767 66 32767 48 32767 
55 32767 32767 32767 69 32767 32767 75 25 32767 71 49 32767 32767 72 32767 32767 32767 
32767 62 32767 32767 58 32767 32767 32767 32767 32767 96 32767 76 32767 82 32767 32767 32767 
43 21 69 58 32767 32767 27 32767 75 32767 32767 32767 32767 32767 32767 32767 32767 66 
26 32767 32767 32767 32767 32767 32767 32767 89 9 32767 36 1 28 32767 32767 32767 32767 
32767 32767 32767 32767 27 32767 32767 20 32767 71 32767 94 52 32767 69 32767 32767 32767 
32767 32767 75 32767 32767 32767 20 32767 32767 91 32767 32767 32767 32767 56 32767 32767 32767 
32767 51 25 32767 75 89 32767 32767 32767 32767 32767 32767 32767 89 32767 32767 32767 15 
27 32767 32767 32767 32767 9 71 91 32767 32767 32767 32767 77 43 32767 32767 32767 12 
32767 90 71 96 32767 32767 32767 32767 32767 32767 32767 30 32 22 30 95 32767 32767 
32767 32767 49 32767 32767 36 94 32767 32767 32767 30 32767 32767 32767 78 32767 32767 43 
32767 67 32767 76 32767 1 52 32767 32767 77 32 32767 32767 32767 32767 32767 32767 32767 
32767 32767 32767 32767 32767 28 32767 32767 89 43 22 32767 32767 32767 61 32767 32767 15 
91 66 72 82 32767 32767 69 56 32767 32767 30 78 32767 61 32767 32767 81 47 
32767 32767 32767 32767 32767 32767 32767 32767 32767 32767 95 32767 32767 32767 32767 32767 100 45 
11 48 32767 32767 32767 32767 32767 32767 32767 32767 32767 32767 32767 32767 81 100 32767 38 
32767 32767 32767 32767 66 32767 32767 32767 15 12 32767 43 32767 15 47 45 38 32767 
EOF